# Solution for model Residenece MIP Model
# Objective value = 1.5606540000000002e+05
X(0_0) 282
X(0_1) 240
X(0_2) 282
X(0_3) 0
X(0_4) 0
X(0_5) 0
X(0_6) 240
X(0_7) 282
X(0_8) 282
X(0_9) 0
X(0_10) 0
X(0_11) 0
X(0_12) 240
X(0_13) 270
X(0_14) 282
X(0_15) 0
X(0_16) 0
X(0_17) 0
X(1_0) 0
X(1_1) 0
X(1_2) 0
X(1_3) 276
X(1_4) 276
X(1_5) 238
X(1_6) 0
X(1_7) 0
X(1_8) 0
X(1_9) 276
X(1_10) 240
X(1_11) 274
X(1_12) 0
X(1_13) 0
X(1_14) 0
X(1_15) 240
X(1_16) 276
X(1_17) 270
X(2_0) 336
X(2_1) 336
X(2_2) 336
X(2_3) 0
X(2_4) 0
X(2_5) 0
X(2_6) 336
X(2_7) 336
X(2_8) 336
X(2_9) 0
X(2_10) 0
X(2_11) 0
X(2_12) 336
X(2_13) 330
X(2_14) 336
X(2_15) 0
X(2_16) 0
X(2_17) 0
X(3_0) 225
X(3_1) 271
X(3_2) 90
X(3_3) 0
X(3_4) 0
X(3_5) 0
X(3_6) 135
X(3_7) 240
X(3_8) 225
X(3_9) 0
X(3_10) 0
X(3_11) 0
X(3_12) 90
X(3_13) 225
X(3_14) 285
X(3_15) 0
X(3_16) 0
X(3_17) 0
X(4_0) 0
X(4_1) 0
X(4_2) 0
X(4_3) 135
X(4_4) 240
X(4_5) 96
X(4_6) 0
X(4_7) 0
X(4_8) 0
X(4_9) 0
X(4_10) 240
X(4_11) 240
X(4_12) 0
X(4_13) 0
X(4_14) 0
X(4_15) 0
X(4_16) 240
X(4_17) 240
X(5_0) 0
X(5_1) 0
X(5_2) 0
X(5_3) 0
X(5_4) 0
X(5_5) 317
X(5_6) 0
X(5_7) 317
X(5_8) 0
X(5_9) 0
X(5_10) 0
X(5_11) 135
X(5_12) 180
X(5_13) 317
X(5_14) 0
X(5_15) 0
X(5_16) 0
X(5_17) 0
X(6_0) 270
X(6_1) 286
X(6_2) 225
X(6_3) 0
X(6_4) 0
X(6_5) 0
X(6_6) 270
X(6_7) 286
X(6_8) 225
X(6_9) 0
X(6_10) 0
X(6_11) 0
X(6_12) 225
X(6_13) 270
X(6_14) 286
X(6_15) 0
X(6_16) 0
X(6_17) 0
X(7_0) 0
X(7_1) 0
X(7_2) 0
X(7_3) 0
X(7_4) 0
X(7_5) 0
X(7_6) 0
X(7_7) 0
X(7_8) 0
X(7_9) 0
X(7_10) 315
X(7_11) 336
X(7_12) 0
X(7_13) 0
X(7_14) 0
X(7_15) 0
X(7_16) 336
X(7_17) 336
X(8_0) 0
X(8_1) 0
X(8_2) 0
X(8_3) 0
X(8_4) 0
X(8_5) 336
X(8_6) 365
X(8_7) 315
X(8_8) 0
X(8_9) 225
X(8_10) 190
X(8_11) 365
X(8_12) 365
X(8_13) 0
X(8_14) 0
X(8_15) 0
X(8_16) 0
X(8_17) 0
X(9_0) 336
X(9_1) 316
X(9_2) 180
X(9_3) 191
X(9_4) 0
X(9_5) 0
X(9_6) 336
X(9_7) 321
X(9_8) 0
X(9_9) 326
X(9_10) 0
X(9_11) 0
X(9_12) 326
X(9_13) 270
X(9_14) 96
X(9_15) 336
X(9_16) 0
X(9_17) 0
X(10_0) 0
X(10_1) 0
X(10_2) 0
X(10_3) 326
X(10_4) 316
X(10_5) 315
X(10_6) 0
X(10_7) 0
X(10_8) 0
X(10_9) 326
X(10_10) 315
X(10_11) 319
X(10_12) 0
X(10_13) 0
X(10_14) 0
X(10_15) 315
X(10_16) 326
X(10_17) 315
X(11_0) 0
X(11_1) 0
X(11_2) 288
X(11_3) 288
X(11_4) 274
X(11_5) 0
X(11_6) 0
X(11_7) 0
X(11_8) 283
X(11_9) 288
X(11_10) 278
X(11_11) 0
X(11_12) 0
X(11_13) 0
X(11_14) 284
X(11_15) 288
X(11_16) 274
X(11_17) 0
X(12_0) 0
X(12_1) 0
X(12_2) 0
X(12_3) 0
X(12_4) 240
X(12_5) 240
X(12_6) 0
X(12_7) 0
X(12_8) 0
X(12_9) 0
X(12_10) 0
X(12_11) 0
X(12_12) 0
X(12_13) 0
X(12_14) 0
X(12_15) 0
X(12_16) 225
X(12_17) 185
X(13_0) 0
X(13_1) 0
X(13_2) 0
X(13_3) 135
X(13_4) 230
X(13_5) 95
X(13_6) 0
X(13_7) 0
X(13_8) 0
X(13_9) 90
X(13_10) 230
X(13_11) 0
X(13_12) 0
X(13_13) 0
X(13_14) 0
X(13_15) 225
X(13_16) 230
X(13_17) 0
X(14_0) 0
X(14_1) 0
X(14_2) 0
X(14_3) 0
X(14_4) 0
X(14_5) 0
X(14_6) 0
X(14_7) 0
X(14_8) 0
X(14_9) 0
X(14_10) 0
X(14_11) 0
X(14_12) 0
X(14_13) 0
X(14_14) 0
X(14_15) 0
X(14_16) 0
X(14_17) 0
X(15_0) 0
X(15_1) 0
X(15_2) 283
X(15_3) 288
X(15_4) 0
X(15_5) 0
X(15_6) 0
X(15_7) 0
X(15_8) 288
X(15_9) 288
X(15_10) 0
X(15_11) 0
X(15_12) 0
X(15_13) 0
X(15_14) 288
X(15_15) 288
X(15_16) 0
X(15_17) 0
X(16_0) 325
X(16_1) 325
X(16_2) 0
X(16_3) 0
X(16_4) 0
X(16_5) 0
X(16_6) 0
X(16_7) 0
X(16_8) 0
X(16_9) 0
X(16_10) 0
X(16_11) 0
X(16_12) 325
X(16_13) 315
X(16_14) 0
X(16_15) 0
X(16_16) 0
X(16_17) 0
X(17_0) 0
X(17_1) 0
X(17_2) 0
X(17_3) 0
X(17_4) 288
X(17_5) 227
X(17_6) 90
X(17_7) 0
X(17_8) 0
X(17_9) 0
X(17_10) 279
X(17_11) 185
X(17_12) 0
X(17_13) 0
X(17_14) 0
X(17_15) 135
X(17_16) 190
X(17_17) 285
X(18_0) 90
X(18_1) 90
X(18_2) 180
X(18_3) 225
X(18_4) 0
X(18_5) 0
X(18_6) 92
X(18_7) 0
X(18_8) 225
X(18_9) 270
X(18_10) 0
X(18_11) 0
X(18_12) 0
X(18_13) 90
X(18_14) 240
X(18_15) 270
X(18_16) 0
X(18_17) 0
Y(0_0) 1
Y(0_1) 1
Y(0_2) 1
Y(0_3) 1
Y(0_4) 1
Y(0_5) 1
Y(0_6) 1
Y(0_7) 1
Y(0_8) 1
Y(0_9) 1
Y(0_10) 1
Y(0_11) 1
Y(0_12) 1
Y(0_13) 1
Y(0_14) 1
Y(0_15) 1
Y(0_16) 1
Y(0_17) 1
Y(0_18) 1
Y(0_19) 1
Y(0_20) 0
Y(0_21) 0
Y(0_22) 0
Y(1_0) 0
Y(1_1) 0
Y(1_2) 0
Y(1_3) 1
Y(1_4) 1
Y(1_5) 1
Y(1_6) 1
Y(1_7) 1
Y(1_8) 1
Y(1_9) 1
Y(1_10) 1
Y(1_11) 1
Y(1_12) 1
Y(1_13) 1
Y(1_14) 1
Y(1_15) 1
Y(1_16) 1
Y(1_17) 1
Y(1_18) 1
Y(1_19) 1
Y(1_20) 1
Y(1_21) 1
Y(1_22) 1
Y(2_0) 1
Y(2_1) 1
Y(2_2) 1
Y(2_3) 1
Y(2_4) 1
Y(2_5) 1
Y(2_6) 1
Y(2_7) 1
Y(2_8) 1
Y(2_9) 1
Y(2_10) 1
Y(2_11) 1
Y(2_12) 1
Y(2_13) 1
Y(2_14) 1
Y(2_15) 1
Y(2_16) 1
Y(2_17) 1
Y(2_18) 1
Y(2_19) 1
Y(2_20) 0
Y(2_21) 0
Y(2_22) 0
Y(3_0) 1
Y(3_1) 1
Y(3_2) 1
Y(3_3) 1
Y(3_4) 1
Y(3_5) 1
Y(3_6) 1
Y(3_7) 1
Y(3_8) 1
Y(3_9) 1
Y(3_10) 1
Y(3_11) 1
Y(3_12) 1
Y(3_13) 1
Y(3_14) 1
Y(3_15) 1
Y(3_16) 1
Y(3_17) 1
Y(3_18) 1
Y(3_19) 1
Y(3_20) 0
Y(3_21) 0
Y(3_22) 0
Y(4_0) 0
Y(4_1) 0
Y(4_2) 0
Y(4_3) 1
Y(4_4) 1
Y(4_5) 1
Y(4_6) 1
Y(4_7) 1
Y(4_8) 1
Y(4_9) 1
Y(4_10) 1
Y(4_11) 1
Y(4_12) 1
Y(4_13) 1
Y(4_14) 1
Y(4_15) 1
Y(4_16) 1
Y(4_17) 1
Y(4_18) 1
Y(4_19) 1
Y(4_20) 1
Y(4_21) 1
Y(4_22) 1
Y(5_0) 0
Y(5_1) 0
Y(5_2) 0
Y(5_3) 0
Y(5_4) 0
Y(5_5) 1
Y(5_6) 1
Y(5_7) 1
Y(5_8) 1
Y(5_9) 1
Y(5_10) 1
Y(5_11) 1
Y(5_12) 1
Y(5_13) 1
Y(5_14) 1
Y(5_15) 1
Y(5_16) 1
Y(5_17) 1
Y(5_18) 1
Y(5_19) 0
Y(5_20) 0
Y(5_21) 0
Y(5_22) 0
Y(6_0) 1
Y(6_1) 1
Y(6_2) 1
Y(6_3) 1
Y(6_4) 1
Y(6_5) 1
Y(6_6) 1
Y(6_7) 1
Y(6_8) 1
Y(6_9) 1
Y(6_10) 1
Y(6_11) 1
Y(6_12) 1
Y(6_13) 1
Y(6_14) 1
Y(6_15) 1
Y(6_16) 1
Y(6_17) 1
Y(6_18) 1
Y(6_19) 1
Y(6_20) 0
Y(6_21) 0
Y(6_22) 0
Y(7_0) 0
Y(7_1) 0
Y(7_2) 0
Y(7_3) 0
Y(7_4) 0
Y(7_5) 0
Y(7_6) 0
Y(7_7) 0
Y(7_8) 0
Y(7_9) 0
Y(7_10) 1
Y(7_11) 1
Y(7_12) 1
Y(7_13) 1
Y(7_14) 1
Y(7_15) 1
Y(7_16) 1
Y(7_17) 1
Y(7_18) 1
Y(7_19) 1
Y(7_20) 1
Y(7_21) 1
Y(7_22) 1
Y(8_0) 0
Y(8_1) 0
Y(8_2) 0
Y(8_3) 0
Y(8_4) 0
Y(8_5) 1
Y(8_6) 1
Y(8_7) 1
Y(8_8) 1
Y(8_9) 1
Y(8_10) 1
Y(8_11) 1
Y(8_12) 1
Y(8_13) 1
Y(8_14) 1
Y(8_15) 1
Y(8_16) 1
Y(8_17) 1
Y(8_18) 0
Y(8_19) 0
Y(8_20) 0
Y(8_21) 0
Y(8_22) 0
Y(9_0) 1
Y(9_1) 1
Y(9_2) 1
Y(9_3) 1
Y(9_4) 1
Y(9_5) 1
Y(9_6) 1
Y(9_7) 1
Y(9_8) 1
Y(9_9) 1
Y(9_10) 1
Y(9_11) 1
Y(9_12) 1
Y(9_13) 1
Y(9_14) 1
Y(9_15) 1
Y(9_16) 1
Y(9_17) 1
Y(9_18) 1
Y(9_19) 1
Y(9_20) 1
Y(9_21) 0
Y(9_22) 0
Y(10_0) 0
Y(10_1) 0
Y(10_2) 0
Y(10_3) 1
Y(10_4) 1
Y(10_5) 1
Y(10_6) 1
Y(10_7) 1
Y(10_8) 1
Y(10_9) 1
Y(10_10) 1
Y(10_11) 1
Y(10_12) 1
Y(10_13) 1
Y(10_14) 1
Y(10_15) 1
Y(10_16) 1
Y(10_17) 1
Y(10_18) 1
Y(10_19) 1
Y(10_20) 1
Y(10_21) 1
Y(10_22) 1
Y(11_0) 0
Y(11_1) 0
Y(11_2) 1
Y(11_3) 1
Y(11_4) 1
Y(11_5) 1
Y(11_6) 1
Y(11_7) 1
Y(11_8) 1
Y(11_9) 1
Y(11_10) 1
Y(11_11) 1
Y(11_12) 1
Y(11_13) 1
Y(11_14) 1
Y(11_15) 1
Y(11_16) 1
Y(11_17) 1
Y(11_18) 1
Y(11_19) 1
Y(11_20) 1
Y(11_21) 1
Y(11_22) 0
Y(12_0) 0
Y(12_1) 0
Y(12_2) 0
Y(12_3) 0
Y(12_4) 1
Y(12_5) 1
Y(12_6) 1
Y(12_7) 1
Y(12_8) 1
Y(12_9) 1
Y(12_10) 1
Y(12_11) 0
Y(12_12) 0
Y(12_13) 0
Y(12_14) 0
Y(12_15) 0
Y(12_16) 1
Y(12_17) 1
Y(12_18) 1
Y(12_19) 1
Y(12_20) 1
Y(12_21) 1
Y(12_22) 1
Y(13_0) 0
Y(13_1) 0
Y(13_2) 0
Y(13_3) 1
Y(13_4) 1
Y(13_5) 1
Y(13_6) 1
Y(13_7) 1
Y(13_8) 1
Y(13_9) 1
Y(13_10) 1
Y(13_11) 1
Y(13_12) 1
Y(13_13) 1
Y(13_14) 1
Y(13_15) 1
Y(13_16) 1
Y(13_17) 1
Y(13_18) 1
Y(13_19) 1
Y(13_20) 1
Y(13_21) 1
Y(13_22) 0
Y(14_0) 0
Y(14_1) 0
Y(14_2) 0
Y(14_3) 0
Y(14_4) 0
Y(14_5) 0
Y(14_6) 0
Y(14_7) 0
Y(14_8) 0
Y(14_9) 0
Y(14_10) 0
Y(14_11) 0
Y(14_12) 0
Y(14_13) 0
Y(14_14) 0
Y(14_15) 0
Y(14_16) 0
Y(14_17) 0
Y(14_18) 0
Y(14_19) 0
Y(14_20) 0
Y(14_21) 0
Y(14_22) 0
Y(15_0) 0
Y(15_1) 0
Y(15_2) 1
Y(15_3) 1
Y(15_4) 1
Y(15_5) 1
Y(15_6) 1
Y(15_7) 1
Y(15_8) 1
Y(15_9) 1
Y(15_10) 1
Y(15_11) 1
Y(15_12) 1
Y(15_13) 1
Y(15_14) 1
Y(15_15) 1
Y(15_16) 1
Y(15_17) 1
Y(15_18) 1
Y(15_19) 1
Y(15_20) 1
Y(15_21) 0
Y(15_22) 0
Y(16_0) 1
Y(16_1) 1
Y(16_2) 1
Y(16_3) 1
Y(16_4) 1
Y(16_5) 1
Y(16_6) 1
Y(16_7) 0
Y(16_8) 0
Y(16_9) 0
Y(16_10) 0
Y(16_11) 0
Y(16_12) 1
Y(16_13) 1
Y(16_14) 1
Y(16_15) 1
Y(16_16) 1
Y(16_17) 1
Y(16_18) 1
Y(16_19) 0
Y(16_20) 0
Y(16_21) 0
Y(16_22) 0
Y(17_0) 0
Y(17_1) 0
Y(17_2) 0
Y(17_3) 0
Y(17_4) 1
Y(17_5) 1
Y(17_6) 1
Y(17_7) 1
Y(17_8) 1
Y(17_9) 1
Y(17_10) 1
Y(17_11) 1
Y(17_12) 1
Y(17_13) 1
Y(17_14) 1
Y(17_15) 1
Y(17_16) 1
Y(17_17) 1
Y(17_18) 1
Y(17_19) 1
Y(17_20) 1
Y(17_21) 1
Y(17_22) 1
Y(18_0) 1
Y(18_1) 1
Y(18_2) 1
Y(18_3) 1
Y(18_4) 1
Y(18_5) 1
Y(18_6) 1
Y(18_7) 1
Y(18_8) 1
Y(18_9) 1
Y(18_10) 1
Y(18_11) 1
Y(18_12) 1
Y(18_13) 1
Y(18_14) 1
Y(18_15) 1
Y(18_16) 1
Y(18_17) 1
Y(18_18) 1
Y(18_19) 1
Y(18_20) 1
Y(18_21) 0
Y(18_22) 0
XMULT(0_0) 6
XMULT(0_1) 5
XMULT(0_2) 6
XMULT(0_3) 0
XMULT(0_4) 0
XMULT(0_5) 0
XMULT(0_6) 5
XMULT(0_7) 6
XMULT(0_8) 6
XMULT(0_9) 0
XMULT(0_10) 0
XMULT(0_11) 0
XMULT(0_12) 5
XMULT(0_13) 6
XMULT(0_14) 6
XMULT(0_15) 0
XMULT(0_16) 0
XMULT(0_17) 0
XMULT(1_0) 0
XMULT(1_1) 0
XMULT(1_2) 0
XMULT(1_3) 6
XMULT(1_4) 6
XMULT(1_5) 5
XMULT(1_6) 0
XMULT(1_7) 0
XMULT(1_8) 0
XMULT(1_9) 6
XMULT(1_10) 5
XMULT(1_11) 6
XMULT(1_12) 0
XMULT(1_13) 0
XMULT(1_14) 0
XMULT(1_15) 5
XMULT(1_16) 6
XMULT(1_17) 6
XMULT(2_0) 7
XMULT(2_1) 7
XMULT(2_2) 7
XMULT(2_3) 0
XMULT(2_4) 0
XMULT(2_5) 0
XMULT(2_6) 7
XMULT(2_7) 7
XMULT(2_8) 7
XMULT(2_9) 0
XMULT(2_10) 0
XMULT(2_11) 0
XMULT(2_12) 7
XMULT(2_13) 7
XMULT(2_14) 7
XMULT(2_15) 0
XMULT(2_16) 0
XMULT(2_17) 0
XMULT(3_0) 5
XMULT(3_1) 6
XMULT(3_2) 2
XMULT(3_3) 0
XMULT(3_4) 0
XMULT(3_5) 0
XMULT(3_6) 3
XMULT(3_7) 5
XMULT(3_8) 5
XMULT(3_9) 0
XMULT(3_10) 0
XMULT(3_11) 0
XMULT(3_12) 2
XMULT(3_13) 5
XMULT(3_14) 6
XMULT(3_15) 0
XMULT(3_16) 0
XMULT(3_17) 0
XMULT(4_0) 0
XMULT(4_1) 0
XMULT(4_2) 0
XMULT(4_3) 3
XMULT(4_4) 5
XMULT(4_5) 2
XMULT(4_6) 0
XMULT(4_7) 0
XMULT(4_8) 0
XMULT(4_9) 0
XMULT(4_10) 5
XMULT(4_11) 5
XMULT(4_12) 0
XMULT(4_13) 0
XMULT(4_14) 0
XMULT(4_15) 0
XMULT(4_16) 5
XMULT(4_17) 5
XMULT(5_0) 0
XMULT(5_1) 0
XMULT(5_2) 0
XMULT(5_3) 0
XMULT(5_4) 0
XMULT(5_5) 7
XMULT(5_6) 0
XMULT(5_7) 7
XMULT(5_8) 0
XMULT(5_9) 0
XMULT(5_10) 0
XMULT(5_11) 3
XMULT(5_12) 4
XMULT(5_13) 7
XMULT(5_14) 0
XMULT(5_15) 0
XMULT(5_16) 0
XMULT(5_17) 0
XMULT(6_0) 6
XMULT(6_1) 6
XMULT(6_2) 5
XMULT(6_3) 0
XMULT(6_4) 0
XMULT(6_5) 0
XMULT(6_6) 6
XMULT(6_7) 6
XMULT(6_8) 5
XMULT(6_9) 0
XMULT(6_10) 0
XMULT(6_11) 0
XMULT(6_12) 5
XMULT(6_13) 6
XMULT(6_14) 6
XMULT(6_15) 0
XMULT(6_16) 0
XMULT(6_17) 0
XMULT(7_0) 0
XMULT(7_1) 0
XMULT(7_2) 0
XMULT(7_3) 0
XMULT(7_4) 0
XMULT(7_5) 0
XMULT(7_6) 0
XMULT(7_7) 0
XMULT(7_8) 0
XMULT(7_9) 0
XMULT(7_10) 7
XMULT(7_11) 7
XMULT(7_12) 0
XMULT(7_13) 0
XMULT(7_14) 0
XMULT(7_15) 0
XMULT(7_16) 7
XMULT(7_17) 7
XMULT(8_0) 0
XMULT(8_1) 0
XMULT(8_2) 0
XMULT(8_3) 0
XMULT(8_4) 0
XMULT(8_5) 7
XMULT(8_6) 8
XMULT(8_7) 7
XMULT(8_8) 0
XMULT(8_9) 5
XMULT(8_10) 4
XMULT(8_11) 8
XMULT(8_12) 8
XMULT(8_13) 0
XMULT(8_14) 0
XMULT(8_15) 0
XMULT(8_16) 0
XMULT(8_17) 0
XMULT(9_0) 7
XMULT(9_1) 7
XMULT(9_2) 4
XMULT(9_3) 4
XMULT(9_4) 0
XMULT(9_5) 0
XMULT(9_6) 7
XMULT(9_7) 7
XMULT(9_8) 0
XMULT(9_9) 7
XMULT(9_10) 0
XMULT(9_11) 0
XMULT(9_12) 7
XMULT(9_13) 6
XMULT(9_14) 2
XMULT(9_15) 7
XMULT(9_16) 0
XMULT(9_17) 0
XMULT(10_0) 0
XMULT(10_1) 0
XMULT(10_2) 0
XMULT(10_3) 7
XMULT(10_4) 7
XMULT(10_5) 7
XMULT(10_6) 0
XMULT(10_7) 0
XMULT(10_8) 0
XMULT(10_9) 7
XMULT(10_10) 7
XMULT(10_11) 7
XMULT(10_12) 0
XMULT(10_13) 0
XMULT(10_14) 0
XMULT(10_15) 7
XMULT(10_16) 7
XMULT(10_17) 7
XMULT(11_0) 0
XMULT(11_1) 0
XMULT(11_2) 6
XMULT(11_3) 6
XMULT(11_4) 6
XMULT(11_5) 0
XMULT(11_6) 0
XMULT(11_7) 0
XMULT(11_8) 6
XMULT(11_9) 6
XMULT(11_10) 6
XMULT(11_11) 0
XMULT(11_12) 0
XMULT(11_13) 0
XMULT(11_14) 6
XMULT(11_15) 6
XMULT(11_16) 6
XMULT(11_17) 0
XMULT(12_0) 0
XMULT(12_1) 0
XMULT(12_2) 0
XMULT(12_3) 0
XMULT(12_4) 5
XMULT(12_5) 5
XMULT(12_6) 0
XMULT(12_7) 0
XMULT(12_8) 0
XMULT(12_9) 0
XMULT(12_10) 0
XMULT(12_11) 0
XMULT(12_12) 0
XMULT(12_13) 0
XMULT(12_14) 0
XMULT(12_15) 0
XMULT(12_16) 5
XMULT(12_17) 4
XMULT(13_0) 0
XMULT(13_1) 0
XMULT(13_2) 0
XMULT(13_3) 3
XMULT(13_4) 5
XMULT(13_5) 2
XMULT(13_6) 0
XMULT(13_7) 0
XMULT(13_8) 0
XMULT(13_9) 2
XMULT(13_10) 5
XMULT(13_11) 0
XMULT(13_12) 0
XMULT(13_13) 0
XMULT(13_14) 0
XMULT(13_15) 5
XMULT(13_16) 5
XMULT(13_17) 0
XMULT(14_0) 0
XMULT(14_1) 0
XMULT(14_2) 0
XMULT(14_3) 0
XMULT(14_4) 0
XMULT(14_5) 0
XMULT(14_6) 0
XMULT(14_7) 0
XMULT(14_8) 0
XMULT(14_9) 0
XMULT(14_10) 0
XMULT(14_11) 0
XMULT(14_12) 0
XMULT(14_13) 0
XMULT(14_14) 0
XMULT(14_15) 0
XMULT(14_16) 0
XMULT(14_17) 0
XMULT(15_0) 0
XMULT(15_1) 0
XMULT(15_2) 6
XMULT(15_3) 6
XMULT(15_4) 0
XMULT(15_5) 0
XMULT(15_6) 0
XMULT(15_7) 0
XMULT(15_8) 6
XMULT(15_9) 6
XMULT(15_10) 0
XMULT(15_11) 0
XMULT(15_12) 0
XMULT(15_13) 0
XMULT(15_14) 6
XMULT(15_15) 6
XMULT(15_16) 0
XMULT(15_17) 0
XMULT(16_0) 7
XMULT(16_1) 7
XMULT(16_2) 0
XMULT(16_3) 0
XMULT(16_4) 0
XMULT(16_5) 0
XMULT(16_6) 0
XMULT(16_7) 0
XMULT(16_8) 0
XMULT(16_9) 0
XMULT(16_10) 0
XMULT(16_11) 0
XMULT(16_12) 7
XMULT(16_13) 7
XMULT(16_14) 0
XMULT(16_15) 0
XMULT(16_16) 0
XMULT(16_17) 0
XMULT(17_0) 0
XMULT(17_1) 0
XMULT(17_2) 0
XMULT(17_3) 0
XMULT(17_4) 6
XMULT(17_5) 5
XMULT(17_6) 2
XMULT(17_7) 0
XMULT(17_8) 0
XMULT(17_9) 0
XMULT(17_10) 6
XMULT(17_11) 4
XMULT(17_12) 0
XMULT(17_13) 0
XMULT(17_14) 0
XMULT(17_15) 3
XMULT(17_16) 4
XMULT(17_17) 6
XMULT(18_0) 2
XMULT(18_1) 2
XMULT(18_2) 4
XMULT(18_3) 5
XMULT(18_4) 0
XMULT(18_5) 0
XMULT(18_6) 2
XMULT(18_7) 0
XMULT(18_8) 5
XMULT(18_9) 6
XMULT(18_10) 0
XMULT(18_11) 0
XMULT(18_12) 0
XMULT(18_13) 2
XMULT(18_14) 5
XMULT(18_15) 6
XMULT(18_16) 0
XMULT(18_17) 0
AUXMULT(0_0) 0
AUXMULT(0_1) 0
AUXMULT(0_2) 0
AUXMULT(0_3) 1
AUXMULT(0_4) 1
AUXMULT(0_5) 1
AUXMULT(0_6) 0
AUXMULT(0_7) 0
AUXMULT(0_8) 0
AUXMULT(0_9) 1
AUXMULT(0_10) 1
AUXMULT(0_11) 1
AUXMULT(0_12) 0
AUXMULT(0_13) 0
AUXMULT(0_14) 0
AUXMULT(0_15) 1
AUXMULT(0_16) 1
AUXMULT(0_17) 1
AUXMULT(1_0) 1
AUXMULT(1_1) 1
AUXMULT(1_2) 1
AUXMULT(1_3) 0
AUXMULT(1_4) 0
AUXMULT(1_5) 0
AUXMULT(1_6) 1
AUXMULT(1_7) 1
AUXMULT(1_8) 1
AUXMULT(1_9) 0
AUXMULT(1_10) 0
AUXMULT(1_11) 0
AUXMULT(1_12) 1
AUXMULT(1_13) 1
AUXMULT(1_14) 1
AUXMULT(1_15) 0
AUXMULT(1_16) 0
AUXMULT(1_17) 0
AUXMULT(2_0) 0
AUXMULT(2_1) 0
AUXMULT(2_2) 0
AUXMULT(2_3) 1
AUXMULT(2_4) 1
AUXMULT(2_5) 1
AUXMULT(2_6) 0
AUXMULT(2_7) 0
AUXMULT(2_8) 0
AUXMULT(2_9) 1
AUXMULT(2_10) 1
AUXMULT(2_11) 1
AUXMULT(2_12) 0
AUXMULT(2_13) 0
AUXMULT(2_14) 0
AUXMULT(2_15) 1
AUXMULT(2_16) 1
AUXMULT(2_17) 1
AUXMULT(3_0) 0
AUXMULT(3_1) 0
AUXMULT(3_2) 0
AUXMULT(3_3) 1
AUXMULT(3_4) 1
AUXMULT(3_5) 1
AUXMULT(3_6) 0
AUXMULT(3_7) 0
AUXMULT(3_8) 0
AUXMULT(3_9) 1
AUXMULT(3_10) 1
AUXMULT(3_11) 1
AUXMULT(3_12) 0
AUXMULT(3_13) 0
AUXMULT(3_14) 0
AUXMULT(3_15) 1
AUXMULT(3_16) 1
AUXMULT(3_17) 1
AUXMULT(4_0) 1
AUXMULT(4_1) 1
AUXMULT(4_2) 1
AUXMULT(4_3) 0
AUXMULT(4_4) 0
AUXMULT(4_5) 0
AUXMULT(4_6) 1
AUXMULT(4_7) 1
AUXMULT(4_8) 1
AUXMULT(4_9) 1
AUXMULT(4_10) 0
AUXMULT(4_11) 0
AUXMULT(4_12) 1
AUXMULT(4_13) 1
AUXMULT(4_14) 1
AUXMULT(4_15) 1
AUXMULT(4_16) 0
AUXMULT(4_17) 0
AUXMULT(5_0) 1
AUXMULT(5_1) 1
AUXMULT(5_2) 1
AUXMULT(5_3) 1
AUXMULT(5_4) 1
AUXMULT(5_5) 0
AUXMULT(5_6) 1
AUXMULT(5_7) 0
AUXMULT(5_8) 1
AUXMULT(5_9) 1
AUXMULT(5_10) 1
AUXMULT(5_11) 0
AUXMULT(5_12) 0
AUXMULT(5_13) 0
AUXMULT(5_14) 1
AUXMULT(5_15) 1
AUXMULT(5_16) 1
AUXMULT(5_17) 1
AUXMULT(6_0) 0
AUXMULT(6_1) 0
AUXMULT(6_2) 0
AUXMULT(6_3) 1
AUXMULT(6_4) 1
AUXMULT(6_5) 1
AUXMULT(6_6) 0
AUXMULT(6_7) 0
AUXMULT(6_8) 0
AUXMULT(6_9) 1
AUXMULT(6_10) 1
AUXMULT(6_11) 1
AUXMULT(6_12) 0
AUXMULT(6_13) 0
AUXMULT(6_14) 0
AUXMULT(6_15) 1
AUXMULT(6_16) 1
AUXMULT(6_17) 1
AUXMULT(7_0) 1
AUXMULT(7_1) 1
AUXMULT(7_2) 1
AUXMULT(7_3) 1
AUXMULT(7_4) 1
AUXMULT(7_5) 1
AUXMULT(7_6) 1
AUXMULT(7_7) 1
AUXMULT(7_8) 1
AUXMULT(7_9) 1
AUXMULT(7_10) 0
AUXMULT(7_11) 0
AUXMULT(7_12) 1
AUXMULT(7_13) 1
AUXMULT(7_14) 1
AUXMULT(7_15) 1
AUXMULT(7_16) 0
AUXMULT(7_17) 0
AUXMULT(8_0) 1
AUXMULT(8_1) 1
AUXMULT(8_2) 1
AUXMULT(8_3) 1
AUXMULT(8_4) 1
AUXMULT(8_5) 0
AUXMULT(8_6) 0
AUXMULT(8_7) 0
AUXMULT(8_8) 1
AUXMULT(8_9) 0
AUXMULT(8_10) 0
AUXMULT(8_11) 0
AUXMULT(8_12) 0
AUXMULT(8_13) 1
AUXMULT(8_14) 1
AUXMULT(8_15) 1
AUXMULT(8_16) 1
AUXMULT(8_17) 1
AUXMULT(9_0) 0
AUXMULT(9_1) 0
AUXMULT(9_2) 0
AUXMULT(9_3) 0
AUXMULT(9_4) 1
AUXMULT(9_5) 1
AUXMULT(9_6) 0
AUXMULT(9_7) 0
AUXMULT(9_8) 1
AUXMULT(9_9) 0
AUXMULT(9_10) 1
AUXMULT(9_11) 1
AUXMULT(9_12) 0
AUXMULT(9_13) 0
AUXMULT(9_14) 0
AUXMULT(9_15) 0
AUXMULT(9_16) 1
AUXMULT(9_17) 1
AUXMULT(10_0) 1
AUXMULT(10_1) 1
AUXMULT(10_2) 1
AUXMULT(10_3) 0
AUXMULT(10_4) 0
AUXMULT(10_5) 0
AUXMULT(10_6) 1
AUXMULT(10_7) 1
AUXMULT(10_8) 1
AUXMULT(10_9) 0
AUXMULT(10_10) 0
AUXMULT(10_11) 0
AUXMULT(10_12) 1
AUXMULT(10_13) 1
AUXMULT(10_14) 1
AUXMULT(10_15) 0
AUXMULT(10_16) 0
AUXMULT(10_17) 0
AUXMULT(11_0) 1
AUXMULT(11_1) 1
AUXMULT(11_2) 0
AUXMULT(11_3) 0
AUXMULT(11_4) 0
AUXMULT(11_5) 1
AUXMULT(11_6) 1
AUXMULT(11_7) 1
AUXMULT(11_8) 0
AUXMULT(11_9) 0
AUXMULT(11_10) 0
AUXMULT(11_11) 1
AUXMULT(11_12) 1
AUXMULT(11_13) 1
AUXMULT(11_14) 0
AUXMULT(11_15) 0
AUXMULT(11_16) 0
AUXMULT(11_17) 1
AUXMULT(12_0) 1
AUXMULT(12_1) 1
AUXMULT(12_2) 1
AUXMULT(12_3) 1
AUXMULT(12_4) 0
AUXMULT(12_5) 0
AUXMULT(12_6) 1
AUXMULT(12_7) 1
AUXMULT(12_8) 1
AUXMULT(12_9) 1
AUXMULT(12_10) 1
AUXMULT(12_11) 1
AUXMULT(12_12) 1
AUXMULT(12_13) 1
AUXMULT(12_14) 1
AUXMULT(12_15) 1
AUXMULT(12_16) 0
AUXMULT(12_17) 0
AUXMULT(13_0) 1
AUXMULT(13_1) 1
AUXMULT(13_2) 1
AUXMULT(13_3) 0
AUXMULT(13_4) 0
AUXMULT(13_5) 0
AUXMULT(13_6) 1
AUXMULT(13_7) 1
AUXMULT(13_8) 1
AUXMULT(13_9) 0
AUXMULT(13_10) 0
AUXMULT(13_11) 1
AUXMULT(13_12) 1
AUXMULT(13_13) 1
AUXMULT(13_14) 1
AUXMULT(13_15) 0
AUXMULT(13_16) 0
AUXMULT(13_17) 1
AUXMULT(14_0) 1
AUXMULT(14_1) 1
AUXMULT(14_2) 1
AUXMULT(14_3) 1
AUXMULT(14_4) 1
AUXMULT(14_5) 1
AUXMULT(14_6) 1
AUXMULT(14_7) 1
AUXMULT(14_8) 1
AUXMULT(14_9) 1
AUXMULT(14_10) 1
AUXMULT(14_11) 1
AUXMULT(14_12) 1
AUXMULT(14_13) 1
AUXMULT(14_14) 1
AUXMULT(14_15) 1
AUXMULT(14_16) 1
AUXMULT(14_17) 1
AUXMULT(15_0) 1
AUXMULT(15_1) 1
AUXMULT(15_2) 0
AUXMULT(15_3) 0
AUXMULT(15_4) 1
AUXMULT(15_5) 1
AUXMULT(15_6) 1
AUXMULT(15_7) 1
AUXMULT(15_8) 0
AUXMULT(15_9) 0
AUXMULT(15_10) 1
AUXMULT(15_11) 1
AUXMULT(15_12) 1
AUXMULT(15_13) 1
AUXMULT(15_14) 0
AUXMULT(15_15) 0
AUXMULT(15_16) 1
AUXMULT(15_17) 1
AUXMULT(16_0) 0
AUXMULT(16_1) 0
AUXMULT(16_2) 1
AUXMULT(16_3) 1
AUXMULT(16_4) 1
AUXMULT(16_5) 1
AUXMULT(16_6) 1
AUXMULT(16_7) 1
AUXMULT(16_8) 1
AUXMULT(16_9) 1
AUXMULT(16_10) 1
AUXMULT(16_11) 1
AUXMULT(16_12) 0
AUXMULT(16_13) 0
AUXMULT(16_14) 1
AUXMULT(16_15) 1
AUXMULT(16_16) 1
AUXMULT(16_17) 1
AUXMULT(17_0) 1
AUXMULT(17_1) 1
AUXMULT(17_2) 1
AUXMULT(17_3) 1
AUXMULT(17_4) 0
AUXMULT(17_5) 0
AUXMULT(17_6) 0
AUXMULT(17_7) 1
AUXMULT(17_8) 1
AUXMULT(17_9) 1
AUXMULT(17_10) 0
AUXMULT(17_11) 0
AUXMULT(17_12) 1
AUXMULT(17_13) 1
AUXMULT(17_14) 1
AUXMULT(17_15) 0
AUXMULT(17_16) 0
AUXMULT(17_17) 0
AUXMULT(18_0) 0
AUXMULT(18_1) 0
AUXMULT(18_2) 0
AUXMULT(18_3) 0
AUXMULT(18_4) 1
AUXMULT(18_5) 1
AUXMULT(18_6) 0
AUXMULT(18_7) 1
AUXMULT(18_8) 0
AUXMULT(18_9) 0
AUXMULT(18_10) 1
AUXMULT(18_11) 1
AUXMULT(18_12) 1
AUXMULT(18_13) 0
AUXMULT(18_14) 0
AUXMULT(18_15) 0
AUXMULT(18_16) 1
AUXMULT(18_17) 1
XRES(0_0) 12
XRES(0_1) 15
XRES(0_2) 12
XRES(0_3) 0
XRES(0_4) 0
XRES(0_5) 0
XRES(0_6) 15
XRES(0_7) 12
XRES(0_8) 12
XRES(0_9) 0
XRES(0_10) 0
XRES(0_11) 0
XRES(0_12) 15
XRES(0_13) 0
XRES(0_14) 12
XRES(0_15) 0
XRES(0_16) 0
XRES(0_17) 0
XRES(1_0) 0
XRES(1_1) 0
XRES(1_2) 0
XRES(1_3) 6
XRES(1_4) 6
XRES(1_5) 13
XRES(1_6) 0
XRES(1_7) 0
XRES(1_8) 0
XRES(1_9) 6
XRES(1_10) 15
XRES(1_11) 4
XRES(1_12) 0
XRES(1_13) 0
XRES(1_14) 0
XRES(1_15) 15
XRES(1_16) 6
XRES(1_17) 0
XRES(2_0) 21
XRES(2_1) 21
XRES(2_2) 21
XRES(2_3) 0
XRES(2_4) 0
XRES(2_5) 0
XRES(2_6) 21
XRES(2_7) 21
XRES(2_8) 21
XRES(2_9) 0
XRES(2_10) 0
XRES(2_11) 0
XRES(2_12) 21
XRES(2_13) 15
XRES(2_14) 21
XRES(2_15) 0
XRES(2_16) 0
XRES(2_17) 0
XRES(3_0) 0
XRES(3_1) 1
XRES(3_2) 0
XRES(3_3) 0
XRES(3_4) 0
XRES(3_5) 0
XRES(3_6) 0
XRES(3_7) 15
XRES(3_8) 0
XRES(3_9) 0
XRES(3_10) 0
XRES(3_11) 0
XRES(3_12) 0
XRES(3_13) 0
XRES(3_14) 15
XRES(3_15) 0
XRES(3_16) 0
XRES(3_17) 0
XRES(4_0) 0
XRES(4_1) 0
XRES(4_2) 0
XRES(4_3) 0
XRES(4_4) 15
XRES(4_5) 6
XRES(4_6) 0
XRES(4_7) 0
XRES(4_8) 0
XRES(4_9) 0
XRES(4_10) 15
XRES(4_11) 15
XRES(4_12) 0
XRES(4_13) 0
XRES(4_14) 0
XRES(4_15) 0
XRES(4_16) 15
XRES(4_17) 15
XRES(5_0) 0
XRES(5_1) 0
XRES(5_2) 0
XRES(5_3) 0
XRES(5_4) 0
XRES(5_5) 2
XRES(5_6) 0
XRES(5_7) 2
XRES(5_8) 0
XRES(5_9) 0
XRES(5_10) 0
XRES(5_11) 0
XRES(5_12) 0
XRES(5_13) 2
XRES(5_14) 0
XRES(5_15) 0
XRES(5_16) 0
XRES(5_17) 0
XRES(6_0) 0
XRES(6_1) 16
XRES(6_2) 0
XRES(6_3) 0
XRES(6_4) 0
XRES(6_5) 0
XRES(6_6) 0
XRES(6_7) 16
XRES(6_8) 0
XRES(6_9) 0
XRES(6_10) 0
XRES(6_11) 0
XRES(6_12) 0
XRES(6_13) 0
XRES(6_14) 16
XRES(6_15) 0
XRES(6_16) 0
XRES(6_17) 0
XRES(7_0) 0
XRES(7_1) 0
XRES(7_2) 0
XRES(7_3) 0
XRES(7_4) 0
XRES(7_5) 0
XRES(7_6) 0
XRES(7_7) 0
XRES(7_8) 0
XRES(7_9) 0
XRES(7_10) 0
XRES(7_11) 21
XRES(7_12) 0
XRES(7_13) 0
XRES(7_14) 0
XRES(7_15) 0
XRES(7_16) 21
XRES(7_17) 21
XRES(8_0) 0
XRES(8_1) 0
XRES(8_2) 0
XRES(8_3) 0
XRES(8_4) 0
XRES(8_5) 21
XRES(8_6) 5
XRES(8_7) 0
XRES(8_8) 0
XRES(8_9) 0
XRES(8_10) 10
XRES(8_11) 5
XRES(8_12) 5
XRES(8_13) 0
XRES(8_14) 0
XRES(8_15) 0
XRES(8_16) 0
XRES(8_17) 0
XRES(9_0) 21
XRES(9_1) 1
XRES(9_2) 0
XRES(9_3) 11
XRES(9_4) 0
XRES(9_5) 0
XRES(9_6) 21
XRES(9_7) 6
XRES(9_8) 0
XRES(9_9) 11
XRES(9_10) 0
XRES(9_11) 0
XRES(9_12) 11
XRES(9_13) 0
XRES(9_14) 6
XRES(9_15) 21
XRES(9_16) 0
XRES(9_17) 0
XRES(10_0) 0
XRES(10_1) 0
XRES(10_2) 0
XRES(10_3) 11
XRES(10_4) 1
XRES(10_5) 0
XRES(10_6) 0
XRES(10_7) 0
XRES(10_8) 0
XRES(10_9) 11
XRES(10_10) 0
XRES(10_11) 4
XRES(10_12) 0
XRES(10_13) 0
XRES(10_14) 0
XRES(10_15) 0
XRES(10_16) 11
XRES(10_17) 0
XRES(11_0) 0
XRES(11_1) 0
XRES(11_2) 18
XRES(11_3) 18
XRES(11_4) 4
XRES(11_5) 0
XRES(11_6) 0
XRES(11_7) 0
XRES(11_8) 13
XRES(11_9) 18
XRES(11_10) 8
XRES(11_11) 0
XRES(11_12) 0
XRES(11_13) 0
XRES(11_14) 14
XRES(11_15) 18
XRES(11_16) 4
XRES(11_17) 0
XRES(12_0) 0
XRES(12_1) 0
XRES(12_2) 0
XRES(12_3) 0
XRES(12_4) 15
XRES(12_5) 15
XRES(12_6) 0
XRES(12_7) 0
XRES(12_8) 0
XRES(12_9) 0
XRES(12_10) 0
XRES(12_11) 0
XRES(12_12) 0
XRES(12_13) 0
XRES(12_14) 0
XRES(12_15) 0
XRES(12_16) 0
XRES(12_17) 5
XRES(13_0) 0
XRES(13_1) 0
XRES(13_2) 0
XRES(13_3) 0
XRES(13_4) 5
XRES(13_5) 5
XRES(13_6) 0
XRES(13_7) 0
XRES(13_8) 0
XRES(13_9) 0
XRES(13_10) 5
XRES(13_11) 0
XRES(13_12) 0
XRES(13_13) 0
XRES(13_14) 0
XRES(13_15) 0
XRES(13_16) 5
XRES(13_17) 0
XRES(14_0) 0
XRES(14_1) 0
XRES(14_2) 0
XRES(14_3) 0
XRES(14_4) 0
XRES(14_5) 0
XRES(14_6) 0
XRES(14_7) 0
XRES(14_8) 0
XRES(14_9) 0
XRES(14_10) 0
XRES(14_11) 0
XRES(14_12) 0
XRES(14_13) 0
XRES(14_14) 0
XRES(14_15) 0
XRES(14_16) 0
XRES(14_17) 0
XRES(15_0) 0
XRES(15_1) 0
XRES(15_2) 13
XRES(15_3) 18
XRES(15_4) 0
XRES(15_5) 0
XRES(15_6) 0
XRES(15_7) 0
XRES(15_8) 18
XRES(15_9) 18
XRES(15_10) 0
XRES(15_11) 0
XRES(15_12) 0
XRES(15_13) 0
XRES(15_14) 18
XRES(15_15) 18
XRES(15_16) 0
XRES(15_17) 0
XRES(16_0) 10
XRES(16_1) 10
XRES(16_2) 0
XRES(16_3) 0
XRES(16_4) 0
XRES(16_5) 0
XRES(16_6) 0
XRES(16_7) 0
XRES(16_8) 0
XRES(16_9) 0
XRES(16_10) 0
XRES(16_11) 0
XRES(16_12) 10
XRES(16_13) 0
XRES(16_14) 0
XRES(16_15) 0
XRES(16_16) 0
XRES(16_17) 0
XRES(17_0) 0
XRES(17_1) 0
XRES(17_2) 0
XRES(17_3) 0
XRES(17_4) 18
XRES(17_5) 2
XRES(17_6) 0
XRES(17_7) 0
XRES(17_8) 0
XRES(17_9) 0
XRES(17_10) 9
XRES(17_11) 5
XRES(17_12) 0
XRES(17_13) 0
XRES(17_14) 0
XRES(17_15) 0
XRES(17_16) 10
XRES(17_17) 15
XRES(18_0) 0
XRES(18_1) 0
XRES(18_2) 0
XRES(18_3) 0
XRES(18_4) 0
XRES(18_5) 0
XRES(18_6) 2
XRES(18_7) 0
XRES(18_8) 0
XRES(18_9) 0
XRES(18_10) 0
XRES(18_11) 0
XRES(18_12) 0
XRES(18_13) 0
XRES(18_14) 15
XRES(18_15) 0
XRES(18_16) 0
XRES(18_17) 0
Y2(0_0) 0
Y2(0_1) 0
Y2(0_2) 0
Y2(0_3) 0
Y2(0_4) 0
Y2(0_5) 0
Y2(0_6) 0
Y2(0_7) 0
Y2(0_8) 0
Y2(0_9) 0
Y2(0_10) 0
Y2(0_11) 0
Y2(0_12) 0
Y2(0_13) 0
Y2(0_14) 0
Y2(0_15) 0
Y2(0_16) 0
Y2(0_17) 0
Y2(0_18) 0
Y2(0_19) 0
Y2(0_20) 0
Y2(0_21) 0
Y2(0_22) 0
Y2(1_0) 0
Y2(1_1) 0
Y2(1_2) 0
Y2(1_3) 0
Y2(1_4) 0
Y2(1_5) 0
Y2(1_6) 0
Y2(1_7) 0
Y2(1_8) 0
Y2(1_9) 0
Y2(1_10) 0
Y2(1_11) 0
Y2(1_12) 0
Y2(1_13) 0
Y2(1_14) 0
Y2(1_15) 0
Y2(1_16) 0
Y2(1_17) 0
Y2(1_18) 0
Y2(1_19) 0
Y2(1_20) 0
Y2(1_21) 0
Y2(1_22) 0
Y2(2_0) 0
Y2(2_1) 0
Y2(2_2) 0
Y2(2_3) 0
Y2(2_4) 0
Y2(2_5) 0
Y2(2_6) 0
Y2(2_7) 0
Y2(2_8) 0
Y2(2_9) 0
Y2(2_10) 0
Y2(2_11) 0
Y2(2_12) 0
Y2(2_13) 0
Y2(2_14) 0
Y2(2_15) 0
Y2(2_16) 0
Y2(2_17) 0
Y2(2_18) 0
Y2(2_19) 0
Y2(2_20) 0
Y2(2_21) 0
Y2(2_22) 0
Y2(3_0) 0
Y2(3_1) 0
Y2(3_2) 0
Y2(3_3) 0
Y2(3_4) 0
Y2(3_5) 0
Y2(3_6) 0
Y2(3_7) 0
Y2(3_8) 0
Y2(3_9) 0
Y2(3_10) 0
Y2(3_11) 0
Y2(3_12) 0
Y2(3_13) 0
Y2(3_14) 0
Y2(3_15) 0
Y2(3_16) 0
Y2(3_17) 0
Y2(3_18) 0
Y2(3_19) 0
Y2(3_20) 0
Y2(3_21) 0
Y2(3_22) 0
Y2(4_0) 0
Y2(4_1) 0
Y2(4_2) 0
Y2(4_3) 0
Y2(4_4) 0
Y2(4_5) 0
Y2(4_6) 0
Y2(4_7) 0
Y2(4_8) 0
Y2(4_9) 0
Y2(4_10) 0
Y2(4_11) 0
Y2(4_12) 0
Y2(4_13) 0
Y2(4_14) 0
Y2(4_15) 0
Y2(4_16) 0
Y2(4_17) 0
Y2(4_18) 0
Y2(4_19) 0
Y2(4_20) 0
Y2(4_21) 0
Y2(4_22) 0
Y2(5_0) 0
Y2(5_1) 0
Y2(5_2) 0
Y2(5_3) 0
Y2(5_4) 0
Y2(5_5) 0
Y2(5_6) 0
Y2(5_7) 0
Y2(5_8) 0
Y2(5_9) 0
Y2(5_10) 0
Y2(5_11) 0
Y2(5_12) 0
Y2(5_13) 0
Y2(5_14) 0
Y2(5_15) 0
Y2(5_16) 0
Y2(5_17) 0
Y2(5_18) 0
Y2(5_19) 0
Y2(5_20) 0
Y2(5_21) 0
Y2(5_22) 0
Y2(6_0) 0
Y2(6_1) 0
Y2(6_2) 0
Y2(6_3) 0
Y2(6_4) 0
Y2(6_5) 0
Y2(6_6) 0
Y2(6_7) 0
Y2(6_8) 0
Y2(6_9) 0
Y2(6_10) 0
Y2(6_11) 0
Y2(6_12) 0
Y2(6_13) 0
Y2(6_14) 0
Y2(6_15) 0
Y2(6_16) 0
Y2(6_17) 0
Y2(6_18) 0
Y2(6_19) 0
Y2(6_20) 0
Y2(6_21) 0
Y2(6_22) 0
Y2(7_0) 0
Y2(7_1) 0
Y2(7_2) 0
Y2(7_3) 0
Y2(7_4) 0
Y2(7_5) 0
Y2(7_6) 0
Y2(7_7) 0
Y2(7_8) 0
Y2(7_9) 0
Y2(7_10) 0
Y2(7_11) 0
Y2(7_12) 0
Y2(7_13) 0
Y2(7_14) 0
Y2(7_15) 0
Y2(7_16) 0
Y2(7_17) 0
Y2(7_18) 0
Y2(7_19) 0
Y2(7_20) 0
Y2(7_21) 0
Y2(7_22) 0
Y2(8_0) 0
Y2(8_1) 0
Y2(8_2) 0
Y2(8_3) 0
Y2(8_4) 0
Y2(8_5) 0
Y2(8_6) 0
Y2(8_7) 0
Y2(8_8) 0
Y2(8_9) 0
Y2(8_10) 0
Y2(8_11) 0
Y2(8_12) 0
Y2(8_13) 0
Y2(8_14) 0
Y2(8_15) 0
Y2(8_16) 0
Y2(8_17) 0
Y2(8_18) 0
Y2(8_19) 0
Y2(8_20) 0
Y2(8_21) 0
Y2(8_22) 0
Y2(9_0) 0
Y2(9_1) 0
Y2(9_2) 0
Y2(9_3) 0
Y2(9_4) 0
Y2(9_5) 0
Y2(9_6) 0
Y2(9_7) 0
Y2(9_8) 0
Y2(9_9) 0
Y2(9_10) 0
Y2(9_11) 0
Y2(9_12) 0
Y2(9_13) 0
Y2(9_14) 0
Y2(9_15) 0
Y2(9_16) 0
Y2(9_17) 0
Y2(9_18) 0
Y2(9_19) 0
Y2(9_20) 0
Y2(9_21) 0
Y2(9_22) 0
Y2(10_0) 0
Y2(10_1) 0
Y2(10_2) 0
Y2(10_3) 0
Y2(10_4) 0
Y2(10_5) 0
Y2(10_6) 0
Y2(10_7) 0
Y2(10_8) 0
Y2(10_9) 0
Y2(10_10) 0
Y2(10_11) 0
Y2(10_12) 0
Y2(10_13) 0
Y2(10_14) 0
Y2(10_15) 0
Y2(10_16) 0
Y2(10_17) 0
Y2(10_18) 0
Y2(10_19) 0
Y2(10_20) 0
Y2(10_21) 0
Y2(10_22) 0
Y2(11_0) 0
Y2(11_1) 0
Y2(11_2) 0
Y2(11_3) 0
Y2(11_4) 0
Y2(11_5) 0
Y2(11_6) 0
Y2(11_7) 0
Y2(11_8) 0
Y2(11_9) 0
Y2(11_10) 0
Y2(11_11) 0
Y2(11_12) 0
Y2(11_13) 0
Y2(11_14) 0
Y2(11_15) 0
Y2(11_16) 0
Y2(11_17) 0
Y2(11_18) 0
Y2(11_19) 0
Y2(11_20) 0
Y2(11_21) 0
Y2(11_22) 0
Y2(12_0) 0
Y2(12_1) 0
Y2(12_2) 0
Y2(12_3) 0
Y2(12_4) 0
Y2(12_5) 0
Y2(12_6) 0
Y2(12_7) 0
Y2(12_8) 0
Y2(12_9) 0
Y2(12_10) 0
Y2(12_11) 0
Y2(12_12) 0
Y2(12_13) 0
Y2(12_14) 0
Y2(12_15) 0
Y2(12_16) 0
Y2(12_17) 0
Y2(12_18) 0
Y2(12_19) 0
Y2(12_20) 0
Y2(12_21) 0
Y2(12_22) 0
Y2(13_0) 0
Y2(13_1) 0
Y2(13_2) 0
Y2(13_3) 0
Y2(13_4) 0
Y2(13_5) 0
Y2(13_6) 0
Y2(13_7) 0
Y2(13_8) 0
Y2(13_9) 0
Y2(13_10) 0
Y2(13_11) 0
Y2(13_12) 0
Y2(13_13) 0
Y2(13_14) 0
Y2(13_15) 0
Y2(13_16) 0
Y2(13_17) 0
Y2(13_18) 0
Y2(13_19) 0
Y2(13_20) 0
Y2(13_21) 0
Y2(13_22) 0
Y2(14_0) 0
Y2(14_1) 0
Y2(14_2) 0
Y2(14_3) 0
Y2(14_4) 0
Y2(14_5) 0
Y2(14_6) 0
Y2(14_7) 0
Y2(14_8) 0
Y2(14_9) 0
Y2(14_10) 0
Y2(14_11) 0
Y2(14_12) 0
Y2(14_13) 0
Y2(14_14) 0
Y2(14_15) 0
Y2(14_16) 0
Y2(14_17) 0
Y2(14_18) 0
Y2(14_19) 0
Y2(14_20) 0
Y2(14_21) 0
Y2(14_22) 0
Y2(15_0) 0
Y2(15_1) 0
Y2(15_2) 0
Y2(15_3) 0
Y2(15_4) 0
Y2(15_5) 0
Y2(15_6) 0
Y2(15_7) 0
Y2(15_8) 0
Y2(15_9) 0
Y2(15_10) 0
Y2(15_11) 0
Y2(15_12) 0
Y2(15_13) 0
Y2(15_14) 0
Y2(15_15) 0
Y2(15_16) 0
Y2(15_17) 0
Y2(15_18) 0
Y2(15_19) 0
Y2(15_20) 0
Y2(15_21) 0
Y2(15_22) 0
Y2(16_0) 0
Y2(16_1) 0
Y2(16_2) 0
Y2(16_3) 0
Y2(16_4) 0
Y2(16_5) 0
Y2(16_6) 0
Y2(16_7) 0
Y2(16_8) 0
Y2(16_9) 0
Y2(16_10) 0
Y2(16_11) 0
Y2(16_12) 0
Y2(16_13) 0
Y2(16_14) 0
Y2(16_15) 0
Y2(16_16) 0
Y2(16_17) 0
Y2(16_18) 0
Y2(16_19) 0
Y2(16_20) 0
Y2(16_21) 0
Y2(16_22) 0
Y2(17_0) 0
Y2(17_1) 0
Y2(17_2) 0
Y2(17_3) 0
Y2(17_4) 0
Y2(17_5) 0
Y2(17_6) 0
Y2(17_7) 0
Y2(17_8) 0
Y2(17_9) 0
Y2(17_10) 0
Y2(17_11) 0
Y2(17_12) 0
Y2(17_13) 0
Y2(17_14) 0
Y2(17_15) 0
Y2(17_16) 0
Y2(17_17) 0
Y2(17_18) 0
Y2(17_19) 0
Y2(17_20) 0
Y2(17_21) 0
Y2(17_22) 0
Y2(18_0) 0
Y2(18_1) 0
Y2(18_2) 0
Y2(18_3) 0
Y2(18_4) 0
Y2(18_5) 0
Y2(18_6) 0
Y2(18_7) 0
Y2(18_8) 0
Y2(18_9) 0
Y2(18_10) 0
Y2(18_11) 0
Y2(18_12) 0
Y2(18_13) 0
Y2(18_14) 0
Y2(18_15) 0
Y2(18_16) 0
Y2(18_17) 0
Y2(18_18) 0
Y2(18_19) 0
Y2(18_20) 0
Y2(18_21) 0
Y2(18_22) 0
